(declare-fun temp142_2 () (_ BitVec 64))
(declare-fun temp142_1 () (_ BitVec 64))
(declare-fun temp142_3 () (_ BitVec 64))
(declare-fun var3606326 () (_ BitVec 64))
(declare-fun var3805404 () (_ BitVec 64))
(declare-fun temp142_4 () (_ BitVec 64))
(declare-fun var3936599 () (_ BitVec 64))
(declare-fun temp142_5 () (_ BitVec 64))
(declare-fun var3936600 () (_ BitVec 64))
(declare-fun temp142_7 () (_ BitVec 64))
(declare-fun temp142_6 () (_ BitVec 64))
(declare-fun temp142_8 () (_ BitVec 64))
(declare-fun var4524072 () (_ BitVec 64))
(declare-fun temp142_9 () (_ BitVec 64))
(declare-fun var4524114 () (_ BitVec 64))
(declare-fun temp142_11 () (_ BitVec 64))
(declare-fun temp142_10 () (_ BitVec 64))
(declare-fun temp142_12 () (_ BitVec 64))
(declare-fun var5245944 () (_ BitVec 64))
(declare-fun var4524059 () (_ BitVec 64))
(declare-fun var4524058 () (_ BitVec 64))
(declare-fun temp142_13 () (_ BitVec 64))
(declare-fun var4524063 () (_ BitVec 64))
(declare-fun temp142_14 () (_ BitVec 64))
(declare-fun var4524065 () (_ BitVec 64))
(declare-fun temp142_15 () (_ BitVec 64))
(declare-fun temp142_16 () (_ BitVec 64))
(declare-fun var5639322 () (_ BitVec 64))
(declare-fun temp142_17 () (_ BitVec 64))
(declare-fun var6031566 () (_ BitVec 64))
(declare-fun temp142_18 () (_ BitVec 64))
(declare-fun var6031643 () (_ BitVec 64))
(declare-fun var6031564 () (_ BitVec 64))
(declare-fun var532113 () (_ BitVec 64))
(declare-fun var532115 () (_ BitVec 64))
(declare-fun var7020255 () (_ BitVec 64))
(declare-fun temp142_20 () (_ BitVec 64))
(declare-fun temp142_19 () (_ BitVec 64))
(assert (= temp142_2 #x0000000000000000))
(assert (= temp142_1 temp142_2))
(assert (= temp142_3 #x0000000000000000))
(assert (= var3606326 temp142_3))
(assert (= var3805404 var3606326))
(assert (= temp142_4 #x0000000000000000))
(assert (= var3936599 temp142_4))
(assert (= temp142_5 #x0000000000000000))
(assert (= var3936600 temp142_5))
(assert (= temp142_7 #x0000000000000000))
(assert (= temp142_6 temp142_7))
(assert (= temp142_8 #x0000000000000000))
(assert (= var4524072 temp142_8))
(assert (= temp142_9 #x0000000000000001))
(assert (= var4524114 temp142_9))
(assert (= temp142_11 #x0000000000000000))
(assert (= temp142_10 temp142_11))
(assert (= temp142_12 #x0000000000000001))
(assert (= var5245944 temp142_12))
(assert (= var4524059 var4524114))
(assert (= var4524058 var4524059))
(assert (= temp142_13 #x0000000000000001))
(assert (= var4524063 (bvand var4524058 temp142_13)))
(assert (= temp142_14 #x0000000000000000))
(assert (= var4524065
   (ite (= var4524063 temp142_14) #x0000000000000001 #x0000000000000000)))
(assert (= temp142_15 #x0000000000000000))
(assert (= var4524065 temp142_15))
(assert (= temp142_16 #x0000000000000000))
(assert (= var5639322 temp142_16))
(assert (= temp142_17 #x0000000000000001))
(assert (= var6031566 temp142_17))
(assert (= temp142_18 #x0000000000000001))
(assert (= var6031643 temp142_18))
(assert (= var6031564 var6031643))
(assert (= var532113 var6031564))
(assert (= var532115 var532113))
(assert (= var7020255 var532115))
(assert (= temp142_20 #x0000000000000005))
(assert (= temp142_19 temp142_20))
(model-add temp142_2 () (_ BitVec 64) #x0000000000000000)
(model-add temp142_1 () (_ BitVec 64) #x0000000000000000)
(model-add temp142_3 () (_ BitVec 64) #x0000000000000000)
(model-add var3606326 () (_ BitVec 64) #x0000000000000000)
(model-add var3805404 () (_ BitVec 64) #x0000000000000000)
(model-add temp142_4 () (_ BitVec 64) #x0000000000000000)
(model-add var3936599 () (_ BitVec 64) #x0000000000000000)
(model-add temp142_5 () (_ BitVec 64) #x0000000000000000)
(model-add var3936600 () (_ BitVec 64) #x0000000000000000)
(model-add temp142_7 () (_ BitVec 64) #x0000000000000000)
(model-add temp142_6 () (_ BitVec 64) #x0000000000000000)
(model-add temp142_8 () (_ BitVec 64) #x0000000000000000)
(model-add var4524072 () (_ BitVec 64) #x0000000000000000)
(model-add temp142_9 () (_ BitVec 64) #x0000000000000001)
(model-add var4524114 () (_ BitVec 64) #x0000000000000001)
(model-add temp142_11 () (_ BitVec 64) #x0000000000000000)
(model-add temp142_10 () (_ BitVec 64) #x0000000000000000)
(model-add temp142_12 () (_ BitVec 64) #x0000000000000001)
(model-add var5245944 () (_ BitVec 64) #x0000000000000001)
(model-add var4524059 () (_ BitVec 64) #x0000000000000001)
(model-add var4524058 () (_ BitVec 64) #x0000000000000001)
(model-add temp142_13 () (_ BitVec 64) #x0000000000000001)
(model-add var4524063 () (_ BitVec 64) #x0000000000000001)
(model-add temp142_14 () (_ BitVec 64) #x0000000000000000)
(model-add var4524065 () (_ BitVec 64) #x0000000000000000)
(model-add temp142_15 () (_ BitVec 64) #x0000000000000000)





